RAW/XX/fspd-mid/X-n125-k30.vrp_seed-8.out
40054	107.727	135.515
