RAW/XX/fspd-mid/X-n125-k30.vrp_seed-8.sol
Route #1: 41 29 104 71 67
Route #2: 106 57 120 5
Route #3: 84 121 54 64 77 7 107 101 20 95
Route #4: 94 58 4 80 65 40 22 47 68 25
Route #5: 3 102 43 32 75
Route #6: 61 83 18 10
Route #7: 98 53 69
Route #8: 56 82 49 50 124 28 78 13
Route #9: 122 110 112 91 21
Route #10: 113 39 103
Route #11: 26 108 62 85 30 27 117
Route #12: 31 52 16 87 114 11 19 9 59 70 6 2
Route #13: 51 105 89 88 115 34 66
Route #14: 73 99 12 100
Route #15: 93 76 45 119 72
Route #16: 111 109 118 63 46 1 79 36 55
Route #17: 96 86 33 37 48
Route #18: 14 123 44 97 74 42 81 92 15 17 116 23 24
Route #19: 60 38 90 35 8
Cost 40054.000000